
Gurobi 10.0.1 (win64) logging started Wed Jul 19 11:36:04 2023

Set parameter LogFile to value "results-3600s-mipfocus0-integralityfocus1/log/SNT_04_makespan.log"
Gurobi Optimizer version 10.0.1 build v10.0.1rc0 (win64)

CPU model: AMD Ryzen 7 3700X 8-Core Processor, instruction set [SSE2|AVX|AVX2]
Thread count: 8 physical cores, 16 logical processors, using up to 16 threads

Optimize a model with 559 rows, 1156 columns and 2280 nonzeros
Model fingerprint: 0xad12d19c
Variable types: 33 continuous, 1123 integer (1122 binary)
Coefficient statistics:
  Matrix range     [1e+00, 1e+07]
  Objective range  [1e+00, 1e+00]
  Bounds range     [1e+00, 1e+00]
  RHS range        [1e+00, 3e+07]
Presolve removed 146 rows and 927 columns
Presolve time: 0.02s
Presolved: 413 rows, 229 columns, 1220 nonzeros
Variable types: 33 continuous, 196 integer (195 binary)
Root relaxation presolve removed 24 rows and 13 columns
Root relaxation presolved: 389 rows, 222 columns, 1145 nonzeros


Root relaxation: objective 1.090000e+02, 130 iterations, 0.00 seconds (0.00 work units)

    Nodes    |    Current Node    |     Objective Bounds      |     Work
 Expl Unexpl |  Obj  Depth IntInf | Incumbent    BestBd   Gap | It/Node Time

     0     0  109.00000    0   56          -  109.00000      -     -    0s
H    0     0                     319.0000000  149.51667  53.1%     -    0s
     0     0  155.34821    0   15  319.00000  155.34821  51.3%     -    0s
     0     0  155.34821    0   12  319.00000  155.34821  51.3%     -    0s
H    0     0                     300.0000000  155.34821  48.2%     -    0s
H    0     0                     257.0000000  155.34821  39.6%     -    0s
     0     0  156.59078    0    4  257.00000  156.59078  39.1%     -    0s
     0     0  156.59078    0    3  257.00000  156.59078  39.1%     -    0s
     0     0  156.59078    0    1  257.00000  156.59078  39.1%     -    0s
H    0     0                     249.0000000  156.59078  37.1%     -    0s
     0     0  158.00789    0    2  249.00000  158.00789  36.5%     -    0s
     0     0  158.00789    0    4  249.00000  158.00789  36.5%     -    0s
H    0     0                     244.0000000  158.00789  35.2%     -    0s
     0     0  158.00789    0   17  244.00000  158.00789  35.2%     -    0s
H    0     0                     240.0000000  158.00789  34.2%     -    0s
H    0     0                     239.0000000  158.00789  33.9%     -    0s
     0     0  158.00789    0   16  239.00000  158.00789  33.9%     -    0s
     0     0  158.16667    0   17  239.00000  158.16667  33.8%     -    0s
H    0     0                     237.0000000  158.16667  33.3%     -    0s
H    0     0                     221.0000000  158.16667  28.4%     -    0s
H    0     0                     219.0000000  158.16667  27.8%     -    0s
H    0     0                     213.0000000  158.16667  25.7%     -    0s
     0     0  158.16667    0   20  213.00000  158.16667  25.7%     -    0s
H    0     0                     211.0000000  158.16667  25.0%     -    0s
     0     0  158.16667    0   41  211.00000  158.16667  25.0%     -    0s
H    0     0                     210.0000000  158.16667  24.7%     -    0s
     0     0  158.16667    0   40  210.00000  158.16667  24.7%     -    0s
     0     0  158.16667    0   57  210.00000  158.16667  24.7%     -    0s
     0     0  158.16667    0   55  210.00000  158.16667  24.7%     -    0s
H    0     0                     209.0000000  158.16667  24.3%     -    0s
     0     2  158.16667    0   46  209.00000  158.16667  24.3%     -    0s
H  176   117                     208.0000000  158.16667  24.0%   125    0s
H  194   134                     207.0000000  158.16667  23.6%   118    0s
* 4036  1221              25     206.0000000  169.74582  17.6%  47.2    4s
  5681   838  189.00000   22   15  206.00000  175.32006  14.9%  57.7    5s
* 7628   188              38     204.0000000  189.55101  7.08%  58.2    5s

Cutting planes:
  Gomory: 28
  Lift-and-project: 140
  Implied bound: 61
  Projected implied bound: 10
  MIR: 306
  StrongCG: 6
  Flow cover: 971
  Inf proof: 18
  RLT: 8
  Relax-and-lift: 151

Explored 8409 nodes (478214 simplex iterations) in 6.93 seconds (7.35 work units)
Thread count was 16 (of 16 available processors)

Solution count 10: 204 204 206 ... 219

Optimal solution found (tolerance 1.00e-04)
Best objective 2.040000000000e+02, best bound 2.040000000000e+02, gap 0.0000%
Warning: constraint name "precedence between 0,5 to 0,0 if x_[j,l,h,z,i]=1" has a space
Warning: constraint name "precedence between 0,5 to 0,0 if x_[j,l,h,z,i]=1" has a space
Warning: default constraint names used to write mps file
